NAME : A-n38-k5.497997.tour
COMMENT : Length = 497997
COMMENT : Found by LKH [Keld Helsgaun] Sun Dec 17 18:36:56 2017
TYPE : TOUR
DIMENSION : 42
TOUR_SECTION
1
11
31
20
19
29
32
38
6
42
33
21
8
23
28
12
41
9
34
36
24
27
13
4
2
40
25
15
3
10
18
37
14
16
39
22
30
35
7
26
17
5
-1
EOF
